N = 6;
H = 5;
T = 2;

avail = array3d(1..N, 1..H, 1..T, [10, 8, 10, 9, 0, 7, 2, 8, 0, 5, 0, 7, 1, 9, 4, 1, 3, 10, 10, 10, 9, 6, 10, 6, 9, 4, 1, 6, 8, 2, 9, 3, 10, 3, 8, 7, 0, 10, 10, 10, 10, 0, 8, 1, 8, 5, 2, 6, 4, 8, 10, 7, 5, 1, 9, 1, 9, 3, 0, 1]);

r = array2d(1..H, 1..T, [3, 2, 2, 1, 3, 0, 0, 2, 0, 3]);
